POSCAR
2.5
  1.00000000  0.00000000  0.00000000
  0.00000000  1.73200000  0.00000000
  0.00000000  0.00000000  9.79800000
Co Cr Fe Ni
 6  6  6  6
Direct
  1.00000000  1.00000000  1.00000000
  1.00000000  1.00000000  0.25000000
  0.50000000  0.50000000  0.75000000
  1.00000000  0.33333300  0.08333325
  1.00000000  0.33333300  0.58333325
  0.50000000  0.16666700  0.91666675
  1.00000000  1.00000000  0.50000000
  0.50000000  0.83333300  0.08333325
  1.00000000  0.33333300  0.83333325
  0.50000000  0.16666700  0.16666675
  0.50000000  0.16666700  0.41666675
  1.00000000  0.66666700  0.66666675
  1.00000000  1.00000000  0.75000000
  0.50000000  0.50000000  1.00000000
  0.50000000  0.83333300  0.58333325
  0.50000000  0.83333300  0.83333325
  1.00000000  0.33333300  0.33333325
  1.00000000  0.66666700  0.41666675
  0.50000000  0.50000000  0.25000000
  0.50000000  0.50000000  0.50000000
  0.50000000  0.83333300  0.33333325
  0.50000000  0.16666700  0.66666675
  1.00000000  0.66666700  0.16666675
  1.00000000  0.66666700  0.91666675
