POSCAR
2.5
  1.00000000  0.00000000  0.00000000
  0.00000000  1.73200000  0.00000000
  0.00000000  0.00000000  9.79800000
Co Cr Fe Ni
 6  6  6  6
Direct
  1.00000000  1.00000000  1.00000000
  1.00000000  1.00000000  0.33333333
  0.50000000  0.83333300  0.08333333
  0.50000000  0.83333300  0.58333333
  1.00000000  0.33333300  0.41666667
  1.00000000  0.33333300  0.91666667
  1.00000000  1.00000000  0.16666667
  1.00000000  1.00000000  0.66666667
  0.50000000  0.50000000  0.83333333
  0.50000000  0.83333300  0.25000000
  0.50000000  0.83333300  0.91666667
  1.00000000  0.33333300  0.58333333
  1.00000000  1.00000000  0.50000000
  1.00000000  1.00000000  0.83333333
  0.50000000  0.50000000  1.00000000
  0.50000000  0.83333300  0.75000000
  1.00000000  0.33333300  0.08333333
  1.00000000  0.33333300  0.25000000
  0.50000000  0.50000000  0.16666667
  0.50000000  0.50000000  0.33333333
  0.50000000  0.50000000  0.50000000
  0.50000000  0.50000000  0.66666667
  0.50000000  0.83333300  0.41666667
  1.00000000  0.33333300  0.75000000
